NAME : portgen-24-48
COMMENT : portgen N=24, seed=48
TYPE : TSP
DIMENSION : 24
EDGE_WEIGHT_TYPE : EUC_2D
NODE_COORD_SECTION
1 495521 519235
2 669037 558814
3 878723 325510
4 221668 195196
5 981736 169628
6 941045 312818
7 781432 721112
8 772965 693354
9 612781 542177
10 836241 797183
11 857671 505822
12 421221 342492
13 177888 288116
14 264503 692597
15 200746 987130
16 454389 458341
17 665278 691670
18 996711 16381
19 662626 403416
20 814752 538557
21 654318 66428
22 250530 773179
23 922527 918483
24 551772 42748
